c turning on binary mode checking
c parsing input formula with 202048 variables and 780985 clauses
c finished parsing, read 2493947 bytes from proof file
c detected empty clause; start verification via backward checking
c 8826 of 780985 clauses in core                            
c 2790 of 104881 lemmas in core using 89459 resolution steps
c 0 RAT lemmas in core; 505 redundant literals in core lemmas
s VERIFIED
c verification time: 1.362 seconds
